32      3       
45      10      10      
0       0       0       0       15      2       3       4       5       6       7       8       9       10      11      12      16      17      30      31      
10      1       1       0       6       14      18      22      23      25      26      
9       6       4       1       5       13      19      20      24      28      
4       21      3       3       5       13      15      19      20      24      
9       38      3       5       6       18      20      22      23      25      27      
2       3       3       4       5       19      20      24      25      28      
3       5       1       0       3       13      19      20      
3       7       5       1       3       13      19      27      
6       5       2       6       4       18      20      23      29      
2       5       6       4       4       18      19      23      24      
6       11      0       7       4       18      19      20      22      
2       0       2       4       3       19      20      26      
2       17      2       0       2       18      21      
4       6       6       0       1       21      
10      7       6       3       1       18      
6       6       4       0       1       22      
5       5       1       5       1       19      
5       34      0       2       1       32      
2       11      3       6       1       32      
7       11      6       1       1       32      
7       7       2       4       1       32      
1       45      10      10      1       32      
6       8       7       3       1       32      
9       6       5       2       1       32      
8       40      4       4       1       32      
1       19      6       4       1       32      
3       11      6       2       1       32      
4       16      6       3       1       32      
10      3       0       4       1       32      
7       0       3       3       1       32      
2       7       6       2       1       32      
0       0       0       0       0       
